p wcnf 140 1600
3 -135 137 0
5 -132 -140 0
7 -132 133 0
2 -131 -136 0
3 -129 -140 0
8 -128 -137 0
2 -128 130 0
10 -127 -140 0
9 -127 -139 0
5 -127 -131 0
5 -127 133 0
7 -126 -133 0
2 -125 135 0
3 -123 -140 0
5 -123 140 0
4 -122 -131 0
4 -122 -123 0
6 -120 -131 0
2 -120 -125 0
7 -120 134 0
7 -119 -126 0
7 -117 -130 0
6 -116 -132 0
6 -116 135 0
9 -115 -139 0
5 -115 -116 0
5 -115 116 0
2 -115 138 0
6 -114 -131 0
4 -114 -128 0
3 -114 124 0
7 -114 127 0
8 -113 -132 0
9 -113 -128 0
9 -112 -121 0
2 -111 -133 0
7 -111 -114 0
9 -111 114 0
1 -111 126 0
6 -110 -113 0
5 -110 135 0
5 -109 -137 0
3 -109 110 0
6 -109 112 0
8 -109 115 0
7 -108 -128 0
9 -108 -112 0
2 -108 113 0
4 -107 -115 0
9 -107 108 0
8 -106 -117 0
10 -105 -135 0
6 -105 -113 0
4 -105 121 0
6 -105 127 0
5 -105 140 0
8 -104 -131 0
1 -104 -109 0
6 -103 -133 0
4 -103 116 0
4 -103 130 0
8 -102 -120 0
10 -102 -116 0
3 -102 -114 0
8 -102 104 0
9 -102 140 0
3 -101 -126 0
4 -101 134 0
8 -100 -108 0
4 -100 103 0
10 -99 -139 0
3 -99 -119 0
8 -99 -116 0
3 -99 105 0
8 -99 107 0
6 -99 138 0
9 -98 -128 0
6 -98 -124 0
6 -98 -123 0
3 -98 135 0
6 -96 -135 0
4 -96 -104 0
3 -96 139 0
2 -95 -123 0
8 -95 -114 0
8 -95 -106 0
5 -95 102 0
6 -95 106 0
8 -95 124 0
1 -94 -127 0
9 -94 -117 0
3 -94 -112 0
8 -94 97 0
9 -94 110 0
5 -94 129 0
6 -94 138 0
7 -93 -127 0
7 -93 -98 0
9 -93 130 0
6 -93 137 0
10 -92 -106 0
9 -92 -98 0
7 -92 102 0
8 -92 112 0
2 -92 113 0
5 -92 131 0
4 -91 120 0
10 -90 -140 0
10 -90 -138 0
9 -89 -138 0
3 -89 -116 0
5 -89 90 0
3 -89 98 0
5 -89 101 0
6 -88 -137 0
1 -88 -125 0
3 -88 -124 0
1 -88 -100 0
6 -88 92 0
1 -88 96 0
1 -88 99 0
5 -88 138 0
3 -88 139 0
9 -87 110 0
3 -87 132 0
7 -86 -129 0
5 -86 -113 0
10 -86 -104 0
4 -86 -94 0
4 -86 -89 0
5 -86 -87 0
4 -86 106 0
3 -86 120 0
2 -85 -117 0
2 -85 109 0
4 -85 118 0
6 -85 127 0
4 -85 134 0
4 -85 139 0
6 -84 -114 0
3 -84 -85 0
6 -83 -115 0
2 -83 -108 0
6 -83 90 0
9 -83 106 0
7 -82 -139 0
6 -82 -99 0
2 -82 -88 0
7 -82 91 0
2 -82 104 0
2 -82 137 0
7 -81 -89 0
5 -81 138 0
4 -80 -106 0
6 -80 -100 0
8 -80 -90 0
9 -80 83 0
1 -80 104 0
7 -80 130 0
3 -80 133 0
5 -79 -126 0
3 -79 86 0
6 -79 87 0
7 -79 101 0
4 -78 -129 0
7 -78 -106 0
1 -78 -92 0
9 -78 80 0
10 -78 88 0
4 -78 97 0
6 -78 121 0
3 -78 131 0
9 -77 -139 0
6 -77 -120 0
8 -77 -105 0
8 -77 -91 0
3 -77 126 0
3 -77 136 0
9 -76 -127 0
9 -76 -77 0
4 -76 99 0
1 -76 104 0
6 -76 116 0
8 -75 -127 0
4 -75 78 0
3 -75 91 0
6 -75 108 0
4 -74 -112 0
3 -74 -107 0
3 -74 -101 0
6 -74 -81 0
7 -74 100 0
5 -74 125 0
2 -73 -140 0
4 -73 -130 0
8 -73 -128 0
8 -73 -104 0
4 -73 83 0
7 -73 93 0
8 -72 -104 0
8 -72 93 0
3 -71 -123 0
10 -71 -101 0
7 -71 -97 0
8 -71 77 0
8 -71 106 0
6 -71 115 0
10 -71 137 0
10 -70 -122 0
5 -70 -102 0
9 -70 -76 0
4 -70 93 0
5 -70 119 0
5 -69 -133 0
2 -69 -121 0
9 -69 -115 0
7 -69 -106 0
7 -69 96 0
3 -69 101 0
9 -69 106 0
9 -69 140 0
8 -68 -140 0
6 -68 -129 0
4 -68 -121 0
9 -68 -84 0
9 -68 -80 0
2 -68 -79 0
7 -68 115 0
3 -67 -123 0
8 -67 -114 0
4 -67 -109 0
1 -67 -96 0
1 -67 96 0
4 -66 75 0
7 -66 87 0
8 -66 89 0
2 -66 135 0
3 -65 -131 0
8 -65 -80 0
2 -65 110 0
7 -64 -130 0
7 -64 -115 0
5 -64 -102 0
2 -64 -83 0
2 -64 83 0
6 -64 99 0
1 -64 111 0
7 -64 113 0
3 -64 122 0
3 -64 138 0
6 -63 -116 0
2 -63 -110 0
10 -63 -83 0
2 -63 -82 0
6 -63 65 0
8 -63 69 0
10 -63 122 0
7 -62 -116 0
5 -62 -96 0
3 -62 82 0
5 -62 107 0
8 -62 129 0
3 -61 -135 0
6 -61 -127 0
3 -61 -119 0
10 -61 -117 0
4 -61 -94 0
3 -61 -89 0
2 -61 64 0
2 -61 92 0
4 -61 114 0
8 -60 -140 0
7 -60 -110 0
7 -60 -91 0
10 -60 -61 0
8 -60 83 0
3 -60 86 0
10 -60 105 0
5 -60 107 0
5 -60 132 0
3 -59 -127 0
1 -59 -118 0
6 -59 -70 0
2 -59 -68 0
2 -59 -64 0
2 -59 121 0
10 -58 -115 0
2 -58 -66 0
8 -58 63 0
5 -58 84 0
4 -58 116 0
3 -58 139 0
3 -57 -98 0
6 -57 -65 0
8 -57 -64 0
5 -57 70 0
6 -57 75 0
2 -57 101 0
7 -57 108 0
7 -57 113 0
2 -56 -111 0
10 -56 -89 0
6 -56 -67 0
9 -56 -65 0
7 -56 96 0
5 -56 104 0
6 -55 -114 0
10 -55 -57 0
5 -55 56 0
2 -55 112 0
5 -55 119 0
7 -54 -113 0
2 -54 -104 0
1 -54 -77 0
8 -54 -71 0
3 -54 65 0
2 -54 79 0
8 -53 -115 0
4 -53 -70 0
9 -53 -68 0
3 -53 67 0
7 -53 68 0
3 -53 114 0
5 -52 -137 0
3 -52 -107 0
9 -52 -102 0
8 -52 -59 0
8 -52 112 0
10 -52 129 0
6 -51 -115 0
5 -51 -113 0
2 -51 -79 0
6 -51 -76 0
1 -51 -58 0
10 -51 87 0
3 -51 108 0
6 -50 -136 0
6 -50 -97 0
3 -50 -67 0
10 -50 52 0
7 -50 64 0
6 -50 98 0
7 -50 108 0
8 -49 -140 0
7 -49 -124 0
5 -49 -112 0
10 -49 53 0
8 -48 -120 0
3 -48 -119 0
4 -48 -116 0
7 -48 -108 0
5 -48 -57 0
10 -48 112 0
9 -47 -124 0
9 -47 -115 0
3 -47 -109 0
8 -47 -87 0
7 -47 -75 0
1 -47 54 0
8 -47 95 0
3 -47 128 0
6 -46 -109 0
9 -46 -103 0
7 -46 -74 0
6 -46 -60 0
9 -46 -59 0
9 -46 56 0
1 -46 95 0
5 -46 123 0
2 -45 -126 0
1 -45 -120 0
2 -45 -86 0
7 -45 -81 0
7 -45 -80 0
8 -45 -75 0
4 -45 72 0
2 -45 77 0
8 -45 84 0
1 -45 120 0
4 -45 124 0
2 -45 128 0
8 -45 130 0
8 -44 -121 0
2 -44 -102 0
6 -44 -91 0
7 -44 -89 0
4 -44 -52 0
4 -44 -46 0
4 -44 47 0
4 -44 67 0
2 -44 68 0
5 -44 69 0
9 -44 73 0
1 -44 88 0
2 -44 92 0
5 -43 -138 0
9 -43 -107 0
1 -43 55 0
5 -43 86 0
4 -43 135 0
2 -43 140 0
6 -42 -108 0
5 -42 -102 0
8 -42 45 0
3 -42 61 0
3 -42 80 0
2 -42 86 0
4 -41 -98 0
1 -41 -77 0
2 -41 59 0
7 -41 61 0
2 -41 83 0
9 -41 137 0
6 -40 -131 0
3 -40 -95 0
5 -40 69 0
2 -39 -99 0
6 -39 -92 0
8 -39 -86 0
5 -39 -85 0
10 -39 -67 0
9 -39 -52 0
9 -39 61 0
9 -39 62 0
9 -39 76 0
1 -38 -123 0
4 -38 -106 0
8 -38 -97 0
2 -38 -76 0
9 -38 62 0
2 -38 87 0
3 -38 110 0
4 -37 -128 0
6 -37 -82 0
10 -37 -66 0
6 -37 -51 0
8 -37 -38 0
1 -37 38 0
9 -37 46 0
9 -37 116 0
3 -36 -64 0
7 -36 130 0
1 -35 -113 0
1 -35 -91 0
2 -35 -87 0
3 -35 -76 0
5 -35 -71 0
3 -35 -36 0
9 -35 42 0
3 -35 117 0
7 -34 -137 0
9 -34 -122 0
2 -34 -118 0
6 -34 -109 0
8 -34 -79 0
2 -34 -58 0
7 -34 -49 0
2 -34 77 0
9 -34 84 0
7 -34 90 0
10 -34 112 0
1 -34 116 0
9 -33 -132 0
4 -33 -125 0
7 -33 -121 0
9 -33 -112 0
9 -33 -77 0
5 -33 -37 0
9 -33 117 0
8 -32 -130 0
3 -32 -129 0
2 -32 -128 0
5 -32 -91 0
4 -32 -82 0
2 -32 -63 0
7 -32 -59 0
6 -32 -50 0
6 -32 40 0
9 -32 61 0
5 -31 -128 0
8 -31 -115 0
6 -31 -112 0
4 -31 -106 0
10 -31 -105 0
2 -31 -83 0
2 -31 -76 0
2 -31 -36 0
8 -31 62 0
3 -31 109 0
10 -31 131 0
5 -30 -135 0
2 -30 -35 0
1 -30 40 0
4 -30 52 0
5 -30 53 0
7 -30 65 0
3 -30 106 0
4 -29 -105 0
2 -29 -103 0
2 -29 -73 0
3 -29 31 0
4 -29 35 0
3 -29 77 0
7 -29 108 0
7 -29 114 0
3 -29 128 0
4 -28 -131 0
3 -28 -123 0
9 -28 -74 0
3 -28 -52 0
6 -28 -31 0
7 -28 44 0
8 -28 56 0
9 -28 71 0
7 -28 89 0
9 -28 138 0
10 -27 -121 0
7 -27 -102 0
7 -27 37 0
2 -27 84 0
7 -27 117 0
3 -26 -39 0
4 -26 -29 0
7 -26 28 0
6 -26 57 0
8 -26 77 0
4 -26 78 0
8 -26 106 0
2 -25 -136 0
4 -25 -120 0
9 -25 -93 0
4 -25 -92 0
7 -25 59 0
1 -25 65 0
10 -25 72 0
4 -25 104 0
4 -25 120 0
3 -24 -94 0
5 -24 -65 0
2 -24 110 0
5 -24 130 0
2 -24 133 0
8 -23 -129 0
3 -23 -85 0
10 -23 -79 0
5 -23 -75 0
2 -23 -74 0
10 -23 -71 0
2 -23 -50 0
8 -23 -48 0
2 -23 67 0
8 -22 -89 0
1 -22 -43 0
5 -22 -32 0
5 -22 -26 0
6 -22 -23 0
3 -22 42 0
7 -22 57 0
4 -22 77 0
4 -22 82 0
2 -22 89 0
3 -22 108 0
7 -22 140 0
8 -21 -72 0
3 -21 -46 0
6 -21 82 0
2 -21 116 0
6 -20 -135 0
9 -20 -125 0
6 -20 -121 0
8 -20 -116 0
4 -20 -110 0
7 -20 -87 0
6 -20 -31 0
6 -20 89 0
7 -20 120 0
10 -19 -119 0
7 -19 -107 0
7 -19 -84 0
1 -19 -57 0
5 -19 -32 0
8 -19 37 0
8 -19 38 0
5 -19 45 0
3 -19 49 0
3 -19 50 0
1 -19 75 0
5 -19 95 0
9 -19 118 0
4 -19 128 0
7 -18 -118 0
10 -18 -117 0
6 -18 -88 0
4 -18 -43 0
7 -18 57 0
8 -18 71 0
10 -18 139 0
8 -17 -130 0
4 -17 -124 0
8 -17 -83 0
4 -17 -71 0
2 -17 -43 0
2 -17 -28 0
1 -17 51 0
7 -17 83 0
7 -17 106 0
7 -16 -88 0
7 -16 -53 0
4 -16 -49 0
4 -16 -44 0
7 -16 -31 0
8 -16 22 0
2 -16 71 0
5 -16 108 0
3 -16 113 0
4 -16 115 0
7 -16 131 0
3 -15 -134 0
8 -15 -109 0
6 -15 -80 0
6 -15 -28 0
5 -15 -27 0
5 -15 -19 0
2 -15 49 0
8 -15 55 0
3 -15 78 0
9 -14 -125 0
8 -14 -123 0
1 -14 -108 0
4 -14 -91 0
6 -14 -61 0
4 -14 -19 0
5 -14 29 0
7 -14 51 0
5 -14 129 0
2 -13 -134 0
4 -13 -128 0
2 -13 -117 0
8 -13 -110 0
7 -13 -97 0
5 -13 -68 0
5 -13 -66 0
4 -13 -62 0
6 -13 -40 0
9 -13 -24 0
6 -13 51 0
9 -13 58 0
6 -13 80 0
8 -13 107 0
7 -13 125 0
2 -12 -89 0
4 -12 -79 0
2 -12 69 0
6 -12 109 0
5 -12 139 0
9 -11 -131 0
8 -11 -121 0
4 -11 -115 0
7 -11 -108 0
8 -11 -106 0
7 -11 -104 0
3 -11 -47 0
2 -11 -34 0
1 -11 -17 0
9 -11 43 0
6 -11 68 0
2 -11 86 0
4 -11 96 0
7 -11 104 0
9 -10 -120 0
9 -10 -85 0
2 -10 -59 0
4 -10 -42 0
4 -10 -11 0
7 -10 23 0
3 -10 91 0
9 -9 -131 0
7 -9 -126 0
8 -9 -78 0
6 -9 -40 0
4 -9 -19 0
8 -9 -18 0
9 -9 23 0
5 -9 24 0
4 -9 25 0
4 -9 26 0
4 -9 39 0
1 -9 60 0
7 -9 64 0
1 -9 65 0
8 -9 70 0
4 -9 90 0
3 -9 97 0
9 -9 114 0
4 -9 119 0
3 -8 -84 0
5 -8 -77 0
5 -8 -68 0
5 -8 -60 0
2 -8 -59 0
4 -8 -40 0
5 -8 -18 0
3 -8 -11 0
7 -8 37 0
7 -8 42 0
10 -8 68 0
8 -8 100 0
6 -8 116 0
7 -8 122 0
6 -8 133 0
2 -7 -118 0
9 -7 -117 0
4 -7 -97 0
1 -7 -96 0
4 -7 -79 0
7 -7 -47 0
4 -7 -25 0
7 -7 -8 0
7 -7 20 0
1 -7 35 0
7 -7 48 0
5 -7 80 0
4 -7 85 0
9 -7 95 0
4 -7 98 0
7 -7 109 0
2 -7 121 0
8 -7 124 0
2 -7 129 0
6 -7 136 0
10 -6 -113 0
5 -6 -105 0
10 -6 -93 0
3 -6 -76 0
1 -6 -65 0
7 -6 -25 0
3 -6 50 0
9 -6 82 0
3 -6 86 0
8 -6 133 0
4 -5 -136 0
4 -5 -106 0
7 -5 -71 0
7 -5 -64 0
5 -5 -51 0
1 -5 -31 0
4 -5 -16 0
8 -5 35 0
7 -5 58 0
1 -5 118 0
8 -5 132 0
4 -4 -131 0
5 -4 -130 0
2 -4 -126 0
3 -4 -118 0
9 -4 -45 0
8 -4 -12 0
4 -4 -10 0
7 -4 -5 0
9 -4 9 0
9 -4 82 0
7 -4 87 0
4 -4 108 0
9 -4 130 0
8 -4 135 0
4 -4 139 0
6 -3 -101 0
1 -3 -97 0
3 -3 -76 0
8 -3 -23 0
8 -3 -22 0
6 -3 42 0
3 -3 43 0
6 -3 120 0
3 -3 130 0
6 -3 134 0
6 -2 -107 0
6 -2 -99 0
4 -2 -92 0
3 -2 -36 0
6 -2 29 0
2 -2 37 0
6 -2 44 0
1 -2 51 0
4 -2 105 0
8 -2 114 0
9 -1 -119 0
2 -1 -106 0
2 -1 -95 0
6 -1 -76 0
9 -1 -66 0
10 -1 -48 0
2 -1 -24 0
3 -1 8 0
9 -1 30 0
10 -1 59 0
6 -1 83 0
5 -1 99 0
1 -1 110 0
8 -1 113 0
3 1 -135 0
8 1 -125 0
3 1 -93 0
5 1 -73 0
4 1 -25 0
5 1 -22 0
1 1 13 0
9 1 42 0
10 1 54 0
4 1 80 0
1 1 98 0
6 1 117 0
5 1 129 0
6 2 -126 0
6 2 -100 0
8 2 -85 0
4 2 -62 0
5 2 -41 0
9 2 -37 0
4 2 -13 0
10 2 -10 0
8 2 3 0
4 2 6 0
2 2 42 0
10 2 61 0
3 2 77 0
2 2 91 0
6 2 104 0
7 2 105 0
2 3 -120 0
3 3 -70 0
9 3 -54 0
10 3 -49 0
6 3 -47 0
4 3 -43 0
4 3 -16 0
10 3 13 0
4 3 49 0
2 4 -91 0
10 4 -69 0
7 4 -56 0
3 4 -33 0
6 4 -14 0
3 4 13 0
8 4 35 0
2 4 70 0
10 5 -112 0
2 5 -90 0
6 5 -17 0
8 5 9 0
5 5 25 0
5 5 99 0
6 5 107 0
8 5 121 0
7 5 135 0
6 6 -136 0
9 6 -125 0
8 6 -118 0
2 6 -92 0
6 6 -89 0
9 6 -61 0
4 6 -48 0
5 6 32 0
9 6 44 0
9 6 53 0
8 6 67 0
2 6 98 0
9 6 122 0
2 7 -140 0
4 7 -103 0
9 7 -98 0
8 7 -74 0
6 7 -64 0
5 7 -30 0
10 7 -8 0
4 7 41 0
5 7 43 0
9 7 92 0
4 7 108 0
1 8 -139 0
7 8 -112 0
8 8 -101 0
5 8 -89 0
3 8 -65 0
6 8 -36 0
2 8 13 0
8 8 34 0
5 8 66 0
9 8 81 0
9 8 87 0
10 8 90 0
8 8 111 0
3 8 114 0
4 8 140 0
6 9 -127 0
2 9 -116 0
2 9 -99 0
8 9 -95 0
10 9 -26 0
3 9 11 0
2 9 54 0
9 9 123 0
1 10 -104 0
6 10 -52 0
3 10 -46 0
10 10 -38 0
9 10 -19 0
8 10 104 0
9 10 118 0
3 10 121 0
8 11 -138 0
6 11 -94 0
1 11 -67 0
3 11 -43 0
8 11 -31 0
6 11 27 0
4 11 43 0
6 11 44 0
10 11 70 0
3 11 71 0
5 11 101 0
9 11 134 0
1 12 -91 0
7 12 -31 0
4 12 -23 0
6 12 22 0
8 12 23 0
5 12 26 0
4 12 107 0
7 12 113 0
7 12 125 0
5 13 -126 0
6 13 -82 0
8 13 -30 0
10 13 16 0
8 13 27 0
7 13 52 0
9 13 120 0
6 14 -136 0
7 14 -131 0
2 14 -124 0
4 14 -110 0
3 14 -104 0
2 14 -100 0
7 14 -77 0
1 14 -75 0
7 14 -74 0
1 14 41 0
6 14 52 0
7 14 73 0
3 14 103 0
1 14 124 0
6 14 129 0
3 15 -100 0
7 15 -98 0
9 15 -87 0
9 15 -51 0
5 15 -37 0
4 15 42 0
3 16 -125 0
2 16 -105 0
10 16 -73 0
7 16 49 0
7 16 69 0
7 16 82 0
7 16 97 0
6 16 99 0
5 16 103 0
6 16 113 0
2 17 -128 0
1 17 -118 0
7 17 -117 0
5 17 -96 0
3 17 -69 0
8 17 -65 0
2 17 -45 0
3 17 -33 0
6 17 23 0
2 17 30 0
9 17 56 0
3 17 72 0
4 17 94 0
9 17 107 0
8 17 128 0
6 17 135 0
6 17 140 0
6 18 -110 0
5 18 -77 0
10 18 -74 0
9 18 -28 0
7 18 86 0
2 18 91 0
8 18 133 0
4 19 -137 0
8 19 -128 0
6 19 -114 0
10 19 -113 0
4 19 -92 0
10 19 -79 0
5 19 -73 0
5 19 68 0
10 19 94 0
2 19 115 0
9 19 125 0
3 20 -91 0
10 20 -54 0
9 20 -28 0
5 20 27 0
5 20 34 0
10 20 56 0
4 20 90 0
7 20 93 0
4 20 101 0
3 20 103 0
4 20 129 0
9 21 -115 0
8 21 -106 0
9 21 -42 0
4 21 -37 0
8 21 -28 0
8 21 74 0
2 21 86 0
9 21 92 0
7 21 121 0
4 22 -138 0
7 22 -98 0
2 22 -95 0
4 22 -92 0
10 22 -64 0
2 22 -50 0
9 22 -41 0
4 22 -28 0
2 22 57 0
10 22 107 0
3 22 109 0
4 22 111 0
10 22 114 0
2 22 121 0
8 23 -93 0
5 23 -54 0
2 23 -48 0
2 23 -46 0
2 23 53 0
5 23 118 0
4 23 131 0
5 24 -135 0
4 24 -102 0
2 24 -96 0
4 24 -82 0
8 24 -81 0
9 24 -60 0
2 24 -59 0
8 24 93 0
7 24 94 0
8 24 95 0
3 24 127 0
4 24 131 0
9 24 133 0
6 25 -128 0
3 25 -110 0
1 25 -89 0
5 25 -82 0
7 25 -54 0
2 25 49 0
4 25 60 0
8 25 63 0
6 25 124 0
4 26 -131 0
10 26 -119 0
4 26 -55 0
8 26 37 0
2 26 38 0
5 26 76 0
9 26 96 0
6 26 120 0
9 27 -119 0
3 27 -86 0
9 27 -48 0
10 27 31 0
7 27 37 0
7 27 65 0
8 27 75 0
8 27 99 0
5 27 102 0
6 27 129 0
6 28 -130 0
7 28 -115 0
8 28 -104 0
6 28 -86 0
3 28 -84 0
2 28 -74 0
6 28 -53 0
6 28 -30 0
7 28 48 0
8 28 98 0
10 28 120 0
6 28 130 0
3 29 -98 0
4 29 -96 0
6 29 -76 0
6 29 -75 0
2 29 -69 0
6 29 -31 0
2 29 39 0
9 30 -124 0
2 30 -99 0
9 30 -60 0
3 30 -42 0
2 30 68 0
9 30 97 0
8 30 109 0
8 31 -128 0
8 31 -117 0
7 31 -103 0
3 31 -72 0
3 31 -53 0
3 31 -37 0
9 31 43 0
2 31 66 0
8 31 88 0
2 31 105 0
3 31 116 0
4 31 133 0
7 32 -94 0
9 32 -47 0
2 32 131 0
7 33 -124 0
5 33 -84 0
4 33 -35 0
10 33 43 0
9 33 53 0
10 33 111 0
2 33 126 0
6 34 -119 0
1 34 -111 0
10 34 -100 0
7 34 -59 0
10 34 -44 0
3 34 64 0
8 34 132 0
9 35 -139 0
1 35 -124 0
6 35 -98 0
7 35 -82 0
7 35 43 0
8 35 111 0
9 35 118 0
9 35 123 0
7 36 -106 0
10 36 -101 0
7 36 -41 0
8 36 -40 0
2 36 81 0
1 36 90 0
5 36 92 0
10 37 -138 0
2 37 -127 0
2 37 -78 0
5 37 -71 0
6 37 -58 0
2 37 -47 0
4 37 49 0
5 37 130 0
2 38 -125 0
9 38 -50 0
6 38 48 0
2 38 51 0
6 38 64 0
6 38 99 0
4 38 102 0
4 38 108 0
5 38 110 0
4 38 116 0
9 39 -117 0
1 39 -60 0
10 39 50 0
7 39 62 0
9 39 70 0
9 39 89 0
4 39 99 0
9 39 131 0
6 40 -118 0
2 40 -115 0
10 40 -108 0
6 40 -89 0
6 40 -87 0
10 40 -62 0
7 40 -55 0
7 40 60 0
4 40 110 0
3 40 116 0
7 40 122 0
7 40 126 0
7 40 138 0
9 41 -132 0
6 41 -131 0
3 41 -126 0
1 41 -122 0
2 41 -117 0
8 41 -59 0
4 41 -50 0
5 41 -45 0
2 41 64 0
7 41 84 0
4 41 102 0
3 42 -114 0
7 42 -90 0
1 42 -81 0
2 42 -52 0
5 42 -47 0
4 42 60 0
9 42 73 0
1 42 84 0
5 42 85 0
9 43 -134 0
6 43 -95 0
9 43 -71 0
9 43 -69 0
4 43 -67 0
6 43 -60 0
3 43 93 0
6 43 95 0
4 43 108 0
9 43 122 0
3 44 -133 0
2 44 -112 0
6 44 -107 0
5 44 -75 0
2 44 -69 0
7 44 52 0
3 44 60 0
5 44 63 0
2 44 68 0
4 44 72 0
2 44 73 0
6 44 90 0
6 44 120 0
8 45 47 0
6 46 -139 0
7 46 -129 0
3 46 -77 0
9 46 -71 0
6 46 -56 0
3 46 71 0
4 47 -131 0
5 47 -105 0
8 47 -94 0
3 47 -83 0
3 47 -78 0
2 47 -70 0
8 47 54 0
5 47 58 0
7 47 72 0
2 47 77 0
5 47 82 0
9 47 119 0
3 48 -119 0
9 48 -99 0
4 48 -79 0
5 48 -57 0
6 48 78 0
6 48 103 0
9 48 122 0
8 49 -68 0
10 49 66 0
1 49 90 0
3 49 112 0
6 49 126 0
8 50 -109 0
8 50 -75 0
2 50 56 0
1 50 61 0
7 50 78 0
7 50 98 0
3 50 108 0
9 51 -122 0
2 51 -102 0
2 51 -81 0
2 51 82 0
4 51 83 0
3 51 98 0
10 51 99 0
9 51 111 0
9 51 113 0
1 52 -135 0
4 52 -61 0
7 52 64 0
4 53 -139 0
3 53 -123 0
2 53 -120 0
7 53 -95 0
8 53 -78 0
7 53 -74 0
6 53 69 0
6 53 84 0
7 53 110 0
6 53 136 0
8 54 -135 0
2 54 -71 0
4 54 -62 0
6 54 55 0
4 54 109 0
4 55 -68 0
3 55 64 0
10 55 72 0
7 55 136 0
2 56 -127 0
2 56 -108 0
7 56 66 0
3 57 -140 0
5 57 -126 0
9 57 -108 0
3 57 -103 0
4 57 -82 0
8 57 81 0
3 57 102 0
6 57 105 0
5 57 119 0
6 58 -120 0
8 58 -91 0
6 58 -64 0
3 58 84 0
7 58 101 0
3 58 123 0
9 59 -131 0
3 59 -86 0
8 59 64 0
5 59 75 0
10 59 89 0
10 59 105 0
8 59 107 0
6 59 133 0
3 59 136 0
2 59 140 0
7 60 -107 0
3 60 -90 0
8 60 81 0
8 60 82 0
4 60 119 0
5 61 -111 0
1 61 -103 0
8 61 -85 0
5 61 -72 0
3 61 63 0
2 61 96 0
3 61 109 0
6 61 113 0
7 61 121 0
7 62 -137 0
2 62 -119 0
5 62 -108 0
3 62 85 0
4 62 104 0
2 62 110 0
4 63 -105 0
3 63 65 0
3 63 74 0
2 63 80 0
6 63 103 0
3 64 -112 0
2 64 -101 0
4 64 -100 0
8 64 -96 0
4 64 -95 0
6 64 69 0
5 64 71 0
7 64 114 0
3 64 119 0
3 64 120 0
10 65 -137 0
8 65 -123 0
3 65 -94 0
8 65 -82 0
2 65 -77 0
6 65 -67 0
8 65 75 0
4 65 88 0
1 65 101 0
5 65 136 0
10 65 137 0
2 66 -125 0
9 66 -119 0
2 66 -102 0
5 66 90 0
1 66 93 0
5 67 -125 0
7 67 -110 0
3 67 -104 0
7 67 -94 0
3 67 71 0
5 67 74 0
8 67 78 0
7 67 101 0
3 67 107 0
2 67 138 0
2 68 -125 0
7 68 -98 0
8 68 -77 0
5 68 73 0
9 68 104 0
7 68 110 0
2 68 117 0
2 68 130 0
5 68 132 0
3 69 -111 0
7 69 83 0
4 69 84 0
6 69 94 0
7 69 114 0
8 69 115 0
6 70 -122 0
8 70 -120 0
7 70 126 0
7 71 -138 0
3 71 -115 0
8 71 -102 0
2 71 -96 0
9 71 -93 0
10 71 -87 0
8 71 -76 0
2 71 -73 0
5 71 103 0
6 71 136 0
7 72 -128 0
7 72 -122 0
7 72 -98 0
9 72 78 0
4 72 134 0
5 73 -126 0
3 73 -104 0
3 73 79 0
2 73 83 0
4 73 118 0
4 74 -135 0
7 74 -123 0
7 74 -117 0
9 74 -105 0
9 74 -101 0
3 74 116 0
6 74 129 0
7 74 137 0
8 75 -124 0
4 75 -96 0
5 75 -95 0
5 75 -88 0
7 75 128 0
2 76 -126 0
6 76 81 0
5 76 91 0
2 76 131 0
4 76 138 0
6 77 -130 0
6 77 -83 0
9 77 -80 0
4 77 96 0
4 77 122 0
6 77 129 0
2 78 -103 0
6 78 -83 0
1 78 91 0
4 78 127 0
8 78 130 0
2 78 132 0
8 79 90 0
2 79 106 0
8 79 107 0
5 79 116 0
1 80 -136 0
7 80 -134 0
7 80 82 0
7 80 92 0
4 80 98 0
5 80 127 0
10 81 -122 0
8 81 -93 0
9 81 -92 0
7 81 105 0
9 81 110 0
5 81 132 0
2 82 -119 0
2 82 -112 0
9 82 106 0
7 82 137 0
7 83 -127 0
8 83 116 0
9 83 120 0
9 84 94 0
4 84 111 0
1 85 101 0
6 85 123 0
4 85 133 0
5 85 139 0
4 86 -132 0
6 86 -103 0
2 86 -98 0
4 86 -91 0
3 86 116 0
6 87 116 0
5 87 127 0
9 88 -126 0
3 88 -111 0
1 88 -107 0
4 88 129 0
7 89 -123 0
1 89 -112 0
2 89 -97 0
6 89 135 0
7 90 -126 0
1 90 -111 0
10 90 108 0
7 90 126 0
2 90 139 0
9 91 -117 0
4 91 -116 0
8 91 -92 0
6 92 -129 0
4 92 -127 0
7 92 -95 0
10 92 125 0
4 92 136 0
3 93 -134 0
4 93 100 0
8 93 128 0
6 95 -105 0
8 95 -102 0
9 96 -97 0
9 97 137 0
2 98 -104 0
5 98 100 0
4 99 -126 0
1 99 -123 0
7 100 -125 0
4 100 -120 0
4 100 115 0
4 100 133 0
4 101 -137 0
5 101 -107 0
9 101 108 0
9 101 118 0
5 101 122 0
9 102 -137 0
7 102 -133 0
6 102 -113 0
7 102 -103 0
10 102 121 0
3 102 134 0
4 103 -127 0
3 103 106 0
10 103 140 0
3 104 -132 0
6 104 -125 0
3 104 -122 0
6 104 120 0
4 104 121 0
8 105 -135 0
5 105 -133 0
3 105 131 0
7 106 -128 0
5 106 -111 0
8 107 -120 0
10 108 -129 0
5 108 -125 0
5 108 -118 0
4 108 137 0
8 109 -138 0
8 109 121 0
7 110 -136 0
3 110 -132 0
7 110 -123 0
6 110 -111 0
7 110 111 0
6 110 137 0
3 111 -125 0
2 111 -120 0
3 111 123 0
3 111 125 0
5 113 -129 0
6 113 -128 0
5 114 -139 0
4 114 -121 0
8 114 137 0
1 115 -140 0
6 115 -120 0
5 117 -123 0
4 120 -140 0
4 120 122 0
8 121 131 0
7 122 132 0
10 123 -125 0
3 123 -124 0
4 123 138 0
9 125 -133 0
8 125 135 0
8 126 139 0
3 128 129 0
6 128 140 0
6 129 139 0
9 129 140 0
8 133 -140 0
3 135 139 0
